param set_len = 22;
param target := 180538;
set values := 14114, 24114, 19617, 15883, 12223, 29221, 1913, 12555, 20688, 2480, 14675, 4031, 2564, 21205, 94, 19, 623, 29432, 5472, 12619, 22651, 31491, ;
